<number of tasks>
70

<cycle time>
207

<task times>
1 17
2 66
3 54
4 52
5 6
6 88
7 21
8 128
9 68
10 70
11 85
12 21
13 134
14 135
15 94
16 90
17 50
18 143
19 19
20 54
21 50
22 40
23 73
24 12
25 152
26 42
27 45
28 74
29 26
30 11
31 31
32 50
33 102
34 46
35 35
36 40
37 2
38 1
39 3
40 13
41 16
42 25
43 21
44 43
45 30
46 83
47 89
48 56
49 59
50 43
51 11
52 26
53 44
54 121
55 38
56 68
57 22
58 7
59 16
60 32
61 25
62 27
63 156
64 28
65 15
66 26
67 18
68 72
69 23
70 27

<precedence relations>
1,2
1,41
1,69
1,70
2,3
3,4
3,68
4,6
4,7
5,6
5,24
5,30
6,8
7,8
8,12
9,10
10,11
11,12
12,13
12,14
13,23
14,23
15,16
16,17
16,18
17,19
18,19
19,20
19,22
19,57
20,21
21,23
22,23
23,25
23,31
23,33
24,25
25,26
25,27
25,28
25,29
26,35
27,35
28,35
29,35
30,31
31,32
32,35
33,34
34,35
35,36
35,44
35,48
35,51
35,53
35,56
35,60
35,61
35,62
36,37
37,38
38,39
39,40
40,42
41,42
42,43
43,50
44,45
45,46
46,47
47,50
48,49
49,50
51,52
52,54
53,54
54,55
57,58
58,59
59,60
61,65
62,63
63,64
64,65
64,66
64,67

<setup times forward>
1,9:10
1,10:4
1,11:3
1,15:10
1,16:4
1,17:3
1,18:5
1,19:5
1,21:9
1,22:5
1,30:4
1,41:10
1,57:9
1,58:3
1,59:7
1,69:3
1,70:3
2,9:10
2,10:4
2,11:3
2,15:10
2,16:4
2,17:3
2,18:5
2,19:5
2,21:9
2,22:5
2,30:4
2,41:10
2,57:9
2,58:3
2,59:7
2,69:3
2,70:3
3,9:10
3,10:4
3,11:3
3,15:10
3,16:4
3,17:3
3,18:5
3,19:5
3,21:9
3,22:5
3,30:4
3,41:10
3,57:9
3,58:3
3,59:7
3,68:1
3,69:3
3,70:3
4,6:4
4,7:10
4,9:10
4,10:4
4,11:3
4,15:10
4,16:4
4,17:3
4,18:5
4,19:5
4,21:9
4,22:5
4,30:4
4,41:10
4,57:9
4,58:3
4,59:7
4,68:1
4,69:3
4,70:3
5,6:4
5,7:10
5,9:10
5,10:4
5,11:3
5,15:10
5,16:4
5,17:3
5,18:5
5,19:5
5,21:9
5,22:5
5,30:4
5,41:10
5,57:9
5,58:3
5,59:7
5,68:1
5,69:3
5,70:3
6,7:14
6,8:8
6,9:14
6,10:8
6,11:7
6,15:14
6,17:7
6,18:1
6,19:1
6,20:4
6,21:5
6,22:1
6,24:4
6,41:14
6,57:5
6,58:7
6,59:11
6,68:3
6,69:7
6,70:7
7,5:10
7,6:14
7,8:6
7,10:6
7,11:7
7,16:14
7,17:7
7,18:15
7,19:15
7,20:10
7,21:19
7,22:15
7,24:10
7,30:14
7,57:19
7,58:7
7,59:3
7,68:11
7,69:7
7,70:7
8,9:6
8,11:1
8,12:1
8,15:6
8,16:8
8,17:1
8,18:9
8,19:9
8,20:4
8,21:13
8,22:9
8,24:4
8,30:8
8,41:6
8,57:13
8,58:1
8,59:3
8,68:5
8,69:1
8,70:1
9,1:10
9,2:10
9,3:10
9,4:10
9,5:10
9,6:14
9,8:6
9,10:6
9,16:14
9,17:7
9,18:15
9,19:15
9,20:10
9,21:19
9,22:15
9,24:10
9,30:14
9,57:19
9,58:7
9,59:3
9,68:11
9,69:7
9,70:7
10,1:4
10,2:4
10,3:4
10,4:4
10,5:4
10,6:8
10,7:6
10,11:1
10,15:6
10,16:8
10,17:1
10,18:9
10,19:9
10,20:4
10,21:13
10,22:9
10,24:4
10,30:8
10,41:6
10,57:13
10,58:1
10,59:3
10,68:5
10,69:1
10,70:1
11,1:3
11,2:3
11,3:3
11,4:3
11,5:3
11,6:7
11,7:7
11,8:1
11,15:7
11,16:7
11,18:8
11,19:8
11,20:3
11,21:12
11,22:8
11,24:3
11,30:7
11,41:7
11,57:12
11,59:4
11,68:4
12,13:12
12,14:3
12,15:7
12,16:7
12,18:8
12,19:8
12,20:3
12,21:12
12,22:8
12,24:3
12,30:7
12,41:7
12,57:12
12,59:4
12,68:4
13,14:9
13,15:19
13,16:5
13,17:12
13,18:4
13,19:4
13,20:9
13,22:4
13,23:15
13,24:9
13,30:5
13,41:19
13,58:12
13,59:16
13,68:8
13,69:12
13,70:12
14,13:9
14,15:10
14,16:4
14,17:3
14,18:5
14,19:5
14,21:9
14,22:5
14,23:6
14,30:4
14,41:10
14,57:9
14,58:3
14,59:7
14,68:1
14,69:3
14,70:3
15,1:10
15,2:10
15,3:10
15,4:10
15,5:10
15,6:14
15,8:6
15,10:6
15,11:7
15,12:7
15,13:19
15,14:10
15,16:14
15,24:10
15,30:14
15,68:11
15,69:7
15,70:7
16,1:4
16,2:4
16,3:4
16,4:4
16,5:4
16,7:14
16,8:8
16,9:14
16,10:8
16,11:7
16,12:7
16,13:5
16,14:4
16,17:7
16,18:1
16,24:4
16,41:14
16,68:3
16,69:7
16,70:7
17,1:3
17,2:3
17,3:3
17,4:3
17,5:3
17,6:7
17,7:7
17,8:1
17,9:7
17,10:1
17,13:12
17,14:3
17,18:8
17,19:8
17,24:3
17,30:7
17,41:7
17,68:4
18,1:5
18,2:5
18,3:5
18,4:5
18,5:5
18,6:1
18,7:15
18,8:9
18,9:15
18,10:9
18,11:8
18,12:8
18,13:4
18,14:5
18,17:8
18,24:5
18,30:1
18,41:15
18,68:4
18,69:8
18,70:8
19,1:5
19,2:5
19,3:5
19,4:5
19,5:5
19,6:1
19,7:15
19,8:9
19,9:15
19,10:9
19,11:8
19,12:8
19,13:4
19,14:5
19,20:5
19,24:5
19,30:1
19,41:15
19,57:4
19,68:4
19,69:8
19,70:8
20,6:4
20,7:10
20,8:4
20,9:10
20,10:4
20,11:3
20,12:3
20,13:9
20,21:9
20,22:5
20,30:4
20,41:10
20,57:9
20,58:3
20,59:7
20,68:1
20,69:3
20,70:3
21,1:9
21,2:9
21,3:9
21,4:9
21,5:9
21,6:5
21,7:19
21,8:13
21,9:19
21,10:13
21,11:12
21,12:12
21,14:9
21,22:4
21,23:15
21,24:9
21,30:5
21,41:19
21,58:12
21,59:16
21,68:8
21,69:12
21,70:12
22,1:5
22,2:5
22,3:5
22,4:5
22,5:5
22,6:1
22,7:15
22,8:9
22,9:15
22,10:9
22,11:8
22,12:8
22,13:4
22,14:5
22,20:5
22,21:4
22,23:11
22,24:5
22,30:1
22,41:15
22,57:4
22,58:8
22,59:12
22,68:4
22,69:8
22,70:8
23,24:6
23,25:10
23,30:10
23,41:4
23,57:15
23,58:3
23,59:1
23,68:7
23,69:3
23,70:3
24,6:4
24,7:10
24,8:4
24,9:10
24,10:4
24,11:3
24,12:3
24,13:9
24,15:10
24,16:4
24,17:3
24,18:5
24,19:5
24,21:9
24,22:5
24,23:6
24,25:4
24,30:4
24,31:6
24,32:4
24,33:6
24,34:11
24,41:10
24,57:9
24,58:3
24,59:7
24,68:1
24,69:3
24,70:3
25,26:7
25,27:7
25,28:7
25,29:3
25,31:10
25,33:10
25,34:7
25,41:14
25,57:5
25,58:7
25,59:11
25,68:3
25,69:7
25,70:7
26,29:10
26,30:7
26,31:17
26,32:7
26,33:17
26,35:10
26,41:21
26,57:2
26,58:14
26,59:18
26,68:10
26,69:14
26,70:14
27,29:10
27,30:7
27,31:17
27,32:7
27,33:17
27,35:10
27,41:21
27,57:2
27,58:14
27,59:18
27,68:10
27,69:14
27,70:14
28,29:10
28,30:7
28,31:17
28,32:7
28,33:17
28,35:10
28,41:21
28,57:2
28,58:14
28,59:18
28,68:10
28,69:14
28,70:14
29,26:10
29,27:10
29,28:10
29,30:3
29,31:7
29,32:3
29,33:7
29,34:10
29,41:11
29,57:8
29,58:4
29,59:8
29,69:4
29,70:4
30,1:4
30,2:4
30,3:4
30,4:4
30,7:14
30,8:8
30,9:14
30,10:8
30,11:7
30,12:7
30,13:5
30,14:4
30,15:14
30,17:7
30,18:1
30,19:1
30,20:4
30,21:5
30,22:1
30,23:10
30,24:4
30,26:7
30,27:7
30,28:7
30,29:3
30,31:10
30,33:10
30,34:7
30,41:14
30,57:5
30,58:7
30,59:11
30,68:3
30,69:7
30,70:7
31,24:6
31,25:10
31,26:17
31,27:17
31,28:17
31,29:7
31,32:10
31,34:17
31,41:4
31,57:15
31,58:3
31,59:1
31,68:7
31,69:3
31,70:3
32,24:4
32,26:7
32,27:7
32,28:7
32,29:3
32,33:10
32,34:7
32,35:3
32,41:14
32,57:5
32,58:7
32,59:11
32,68:3
32,69:7
32,70:7
33,24:6
33,25:10
33,26:17
33,27:17
33,28:17
33,29:7
33,30:10
33,32:10
33,34:17
33,41:4
33,57:15
33,58:3
33,59:1
33,68:7
33,69:3
33,70:3
34,24:11
34,25:7
34,29:10
34,30:7
34,31:17
34,32:7
34,35:10
34,41:21
34,57:2
34,58:14
34,59:18
34,68:10
34,69:14
34,70:14
35,36:4
35,41:11
35,44:4
35,48:4
35,51:4
35,53:4
35,57:8
35,58:4
35,59:8
35,60:12
35,61:8
35,62:8
35,69:4
35,70:4
36,37:14
36,41:7
36,45:16
36,46:16
36,47:5
36,49:16
36,52:4
36,54:7
36,55:5
36,56:4
36,57:12
36,59:4
36,60:16
36,61:4
36,62:4
36,63:14
36,64:7
36,65:5
36,66:7
36,67:5
36,68:4
37,41:21
37,44:14
37,45:2
37,46:2
37,47:9
37,48:14
37,49:2
37,51:14
37,52:18
37,53:14
37,54:21
37,55:9
37,56:10
37,57:2
37,58:14
37,59:18
37,60:2
37,61:18
37,62:18
37,64:21
37,65:9
37,66:21
37,67:9
37,68:10
37,69:14
37,70:14
38,41:21
38,44:14
38,45:2
38,46:2
38,47:9
38,48:14
38,49:2
38,51:14
38,52:18
38,53:14
38,54:21
38,55:9
38,56:10
38,57:2
38,58:14
38,59:18
38,60:2
38,61:18
38,62:18
38,64:21
38,65:9
38,66:21
38,67:9
38,68:10
38,69:14
38,70:14
39,41:21
39,44:14
39,45:2
39,46:2
39,47:9
39,48:14
39,49:2
39,51:14
39,52:18
39,53:14
39,54:21
39,55:9
39,56:10
39,57:2
39,58:14
39,59:18
39,60:2
39,61:18
39,62:18
39,64:21
39,65:9
39,66:21
39,67:9
39,68:10
39,69:14
39,70:14
40,41:21
40,44:14
40,45:2
40,46:2
40,47:9
40,48:14
40,49:2
40,51:14
40,52:18
40,53:14
40,54:21
40,55:9
40,56:10
40,57:2
40,58:14
40,59:18
40,60:2
40,61:18
40,62:18
40,64:21
40,65:9
40,66:21
40,67:9
40,68:10
40,69:14
40,70:14
41,2:10
41,3:10
41,4:10
41,5:10
41,6:14
41,8:6
41,10:6
41,11:7
41,12:7
41,13:19
41,14:10
41,16:14
41,17:7
41,18:15
41,19:15
41,20:10
41,21:19
41,22:15
41,23:4
41,24:10
41,25:14
41,26:21
41,27:21
41,28:21
41,29:11
41,30:14
41,31:4
41,32:14
41,33:4
41,34:21
41,35:11
41,36:7
41,37:21
41,38:21
41,39:21
41,40:21
41,42:21
41,44:7
41,45:23
41,46:23
41,47:12
41,48:7
41,49:23
41,51:7
41,52:3
41,53:7
41,55:12
41,56:11
41,57:19
41,58:7
41,59:3
41,60:23
41,61:3
41,62:3
41,63:21
41,65:12
41,67:12
41,68:11
41,69:7
41,70:7
42,43:21
42,44:14
42,45:2
42,46:2
42,47:9
42,48:14
42,49:2
42,51:14
42,52:18
42,53:14
42,54:21
42,55:9
42,56:10
42,57:2
42,58:14
42,59:18
42,60:2
42,61:18
42,62:18
42,64:21
42,65:9
42,66:21
42,67:9
42,68:10
42,69:14
42,70:14
43,44:7
43,45:23
43,46:23
43,47:12
43,48:7
43,49:23
43,50:12
43,51:7
43,52:3
43,53:7
43,55:12
43,56:11
43,57:19
43,58:7
43,59:3
43,60:23
43,61:3
43,62:3
43,63:21
43,65:12
43,67:12
43,68:11
43,69:7
43,70:7
44,37:14
44,38:14
44,39:14
44,40:14
44,41:7
44,42:14
44,43:7
44,45:16
44,49:16
44,52:4
44,54:7
44,55:5
44,56:4
44,57:12
44,59:4
44,60:16
44,61:4
44,62:4
44,63:14
44,64:7
44,65:5
44,66:7
44,67:5
44,68:4
45,36:16
45,37:2
45,38:2
45,39:2
45,40:2
45,41:23
45,42:2
45,43:23
45,48:16
45,51:16
45,52:20
45,53:16
45,54:23
45,55:11
45,56:12
45,57:4
45,58:16
45,59:20
45,61:20
45,62:20
45,63:2
45,64:23
45,65:11
45,66:23
45,67:11
45,68:12
45,69:16
45,70:16
46,36:16
46,37:2
46,38:2
46,39:2
46,40:2
46,41:23
46,42:2
46,43:23
46,47:11
46,48:16
46,51:16
46,52:20
46,53:16
46,54:23
46,55:11
46,56:12
46,57:4
46,58:16
46,59:20
46,61:20
46,62:20
46,63:2
46,64:23
46,65:11
46,66:23
46,67:11
46,68:12
46,69:16
46,70:16
47,36:5
47,37:9
47,38:9
47,39:9
47,40:9
47,41:12
47,42:9
47,43:12
47,48:5
47,49:11
47,51:5
47,52:9
47,53:5
47,54:12
47,56:1
47,57:7
47,58:5
47,59:9
47,60:11
47,61:9
47,62:9
47,63:9
47,64:12
47,66:12
47,68:1
47,69:5
47,70:5
48,37:14
48,38:14
48,39:14
48,40:14
48,41:7
48,42:14
48,43:7
48,45:16
48,46:16
48,47:5
48,49:16
48,52:4
48,54:7
48,55:5
48,56:4
48,57:12
48,59:4
48,60:16
48,61:4
48,62:4
48,63:14
48,64:7
48,65:5
48,66:7
48,67:5
48,68:4
49,36:16
49,37:2
49,38:2
49,39:2
49,40:2
49,41:23
49,42:2
49,43:23
49,44:16
49,47:11
49,50:11
49,51:16
49,52:20
49,53:16
49,54:23
49,55:11
49,56:12
49,57:4
49,58:16
49,59:20
49,61:20
49,62:20
49,63:2
49,64:23
49,65:11
49,66:23
49,67:11
49,68:12
49,69:16
49,70:16
50,51:5
50,52:9
50,53:5
50,54:12
50,56:1
50,57:7
50,58:5
50,59:9
50,60:11
50,61:9
50,62:9
50,63:9
50,64:12
50,66:12
50,68:1
50,69:5
50,70:5
51,37:14
51,38:14
51,39:14
51,40:14
51,41:7
51,42:14
51,43:7
51,45:16
51,46:16
51,47:5
51,49:16
51,50:5
51,52:4
51,56:4
51,57:12
51,59:4
51,60:16
51,61:4
51,62:4
51,63:14
51,64:7
51,65:5
51,66:7
51,67:5
51,68:4
52,36:4
52,37:18
52,38:18
52,39:18
52,40:18
52,41:3
52,42:18
52,43:3
52,44:4
52,45:20
52,46:20
52,47:9
52,48:4
52,49:20
52,50:9
52,53:4
52,54:3
52,56:8
52,57:16
52,58:4
52,60:20
52,63:18
52,64:3
52,65:9
52,66:3
52,67:9
52,68:8
52,69:4
52,70:4
53,37:14
53,38:14
53,39:14
53,40:14
53,41:7
53,42:14
53,43:7
53,45:16
53,46:16
53,47:5
53,49:16
53,50:5
53,52:4
53,54:7
53,56:4
53,57:12
53,59:4
53,60:16
53,61:4
53,62:4
53,63:14
53,64:7
53,65:5
53,66:7
53,67:5
53,68:4
54,36:7
54,37:21
54,38:21
54,39:21
54,40:21
54,42:21
54,44:7
54,45:23
54,46:23
54,47:12
54,48:7
54,49:23
54,50:12
54,55:12
54,56:11
54,57:19
54,58:7
54,59:3
54,60:23
54,61:3
54,62:3
54,63:21
54,65:12
54,67:12
54,68:11
54,69:7
54,70:7
55,36:5
55,37:9
55,38:9
55,39:9
55,40:9
55,41:12
55,42:9
55,43:12
55,44:5
55,45:11
55,46:11
55,48:5
55,49:11
55,56:1
55,57:7
55,58:5
55,59:9
55,60:11
55,61:9
55,62:9
55,63:9
55,64:12
55,66:12
55,68:1
55,69:5
55,70:5
56,36:4
56,37:10
56,38:10
56,39:10
56,40:10
56,41:11
56,42:10
56,43:11
56,44:4
56,45:12
56,46:12
56,47:1
56,48:4
56,49:12
56,50:1
56,51:4
56,52:8
56,53:4
56,54:11
56,55:1
56,57:8
56,58:4
56,59:8
56,60:12
56,61:8
56,62:8
56,63:10
56,64:11
56,65:1
56,66:11
56,67:1
56,69:4
56,70:4
57,1:9
57,2:9
57,3:9
57,4:9
57,5:9
57,6:5
57,7:19
57,8:13
57,9:19
57,10:13
57,11:12
57,12:12
57,14:9
57,20:9
57,22:4
57,23:15
57,24:9
57,25:5
57,26:2
57,27:2
57,28:2
57,29:8
57,30:5
57,31:15
57,32:5
57,33:15
57,34:2
57,35:8
57,36:12
57,37:2
57,38:2
57,39:2
57,40:2
57,41:19
57,42:2
57,43:19
57,44:12
57,45:4
57,46:4
57,47:7
57,48:12
57,49:4
57,50:7
57,51:12
57,52:16
57,53:12
57,54:19
57,55:7
57,56:8
57,58:12
57,61:16
57,62:16
57,63:2
57,64:19
57,65:7
57,66:19
57,67:7
57,68:8
57,69:12
57,70:12
58,1:3
58,2:3
58,3:3
58,4:3
58,5:3
58,6:7
58,7:7
58,8:1
58,9:7
58,10:1
58,13:12
58,14:3
58,20:3
58,21:12
58,22:8
58,23:3
58,24:3
58,25:7
58,26:14
58,27:14
58,28:14
58,29:4
58,30:7
58,31:3
58,32:7
58,33:3
58,34:14
58,35:4
58,37:14
58,38:14
58,39:14
58,40:14
58,41:7
58,42:14
58,43:7
58,45:16
58,46:16
58,47:5
58,49:16
58,50:5
58,52:4
58,54:7
58,55:5
58,56:4
58,59:4
58,61:4
58,62:4
58,63:14
58,64:7
58,65:5
58,66:7
58,67:5
58,68:4
59,1:7
59,2:7
59,3:7
59,4:7
59,5:7
59,6:11
59,7:3
59,8:3
59,9:3
59,10:3
59,11:4
59,12:4
59,13:16
59,14:7
59,20:7
59,21:16
59,22:12
59,23:1
59,24:7
59,25:11
59,26:18
59,27:18
59,28:18
59,29:8
59,30:11
59,31:1
59,32:11
59,33:1
59,34:18
59,35:8
59,36:4
59,37:18
59,38:18
59,39:18
59,40:18
59,41:3
59,42:18
59,43:3
59,44:4
59,45:20
59,46:20
59,47:9
59,48:4
59,49:20
59,50:9
59,51:4
59,53:4
59,54:3
59,55:9
59,56:8
59,60:20
59,63:18
59,64:3
59,65:9
59,66:3
59,67:9
59,68:8
59,69:4
59,70:4
60,36:16
60,37:2
60,38:2
60,39:2
60,40:2
60,41:23
60,42:2
60,43:23
60,44:16
60,47:11
60,48:16
60,50:11
60,51:16
60,52:20
60,53:16
60,54:23
60,55:11
60,56:12
60,61:20
60,62:20
60,63:2
60,64:23
60,65:11
60,66:23
60,67:11
60,68:12
60,69:16
60,70:16
61,36:4
61,37:18
61,38:18
61,39:18
61,40:18
61,41:3
61,42:18
61,43:3
61,44:4
61,45:20
61,46:20
61,47:9
61,48:4
61,49:20
61,50:9
61,51:4
61,53:4
61,54:3
61,55:9
61,56:8
61,57:16
61,58:4
61,60:20
61,63:18
61,64:3
61,65:9
61,66:3
61,67:9
61,68:8
61,69:4
61,70:4
62,36:4
62,37:18
62,38:18
62,39:18
62,40:18
62,41:3
62,42:18
62,43:3
62,44:4
62,45:20
62,46:20
62,47:9
62,48:4
62,49:20
62,50:9
62,51:4
62,53:4
62,54:3
62,55:9
62,56:8
62,57:16
62,58:4
62,60:20
62,63:18
62,68:8
62,69:4
62,70:4
63,36:14
63,41:21
63,43:21
63,44:14
63,45:2
63,46:2
63,47:9
63,48:14
63,49:2
63,50:9
63,51:14
63,52:18
63,53:14
63,54:21
63,55:9
63,56:10
63,57:2
63,58:14
63,59:18
63,60:2
63,61:18
63,64:21
63,68:10
63,69:14
63,70:14
64,36:7
64,37:21
64,38:21
64,39:21
64,40:21
64,42:21
64,44:7
64,45:23
64,46:23
64,47:12
64,48:7
64,49:23
64,50:12
64,51:7
64,52:3
64,53:7
64,55:12
64,56:11
64,57:19
64,58:7
64,59:3
64,60:23
64,61:3
64,65:12
64,67:12
64,68:11
64,69:7
64,70:7
65,36:5
65,37:9
65,38:9
65,39:9
65,40:9
65,41:12
65,42:9
65,43:12
65,44:5
65,45:11
65,46:11
65,48:5
65,49:11
65,51:5
65,52:9
65,53:5
65,54:12
65,56:1
65,57:7
65,58:5
65,59:9
65,60:11
65,66:12
65,68:1
65,69:5
65,70:5
66,36:7
66,37:21
66,38:21
66,39:21
66,40:21
66,42:21
66,44:7
66,45:23
66,46:23
66,47:12
66,48:7
66,49:23
66,50:12
66,51:7
66,52:3
66,53:7
66,55:12
66,56:11
66,57:19
66,58:7
66,59:3
66,60:23
66,61:3
66,65:12
66,67:12
66,68:11
66,69:7
66,70:7
67,36:5
67,37:9
67,38:9
67,39:9
67,40:9
67,41:12
67,42:9
67,43:12
67,44:5
67,45:11
67,46:11
67,48:5
67,49:11
67,51:5
67,52:9
67,53:5
67,54:12
67,56:1
67,57:7
67,58:5
67,59:9
67,60:11
67,61:9
67,66:12
67,68:1
67,69:5
67,70:5
68,4:1
68,5:1
68,6:3
68,7:11
68,8:5
68,9:11
68,10:5
68,11:4
68,12:4
68,13:8
68,14:1
68,15:11
68,16:3
68,17:4
68,18:4
68,19:4
68,20:1
68,21:8
68,22:4
68,23:7
68,24:1
68,25:3
68,26:10
68,27:10
68,28:10
68,30:3
68,31:7
68,32:3
68,33:7
68,34:10
68,36:4
68,37:10
68,38:10
68,39:10
68,40:10
68,41:11
68,42:10
68,43:11
68,44:4
68,45:12
68,46:12
68,47:1
68,48:4
68,49:12
68,50:1
68,51:4
68,52:8
68,53:4
68,54:11
68,55:1
68,57:8
68,58:4
68,59:8
68,60:12
68,61:8
68,62:8
68,63:10
68,64:11
68,65:1
68,66:11
68,67:1
68,69:4
68,70:4
69,2:3
69,3:3
69,4:3
69,5:3
69,6:7
69,7:7
69,8:1
69,9:7
69,10:1
69,13:12
69,14:3
69,15:7
69,16:7
69,18:8
69,19:8
69,20:3
69,21:12
69,22:8
69,23:3
69,24:3
69,25:7
69,26:14
69,27:14
69,28:14
69,29:4
69,30:7
69,31:3
69,32:7
69,33:3
69,34:14
69,35:4
69,37:14
69,38:14
69,39:14
69,40:14
69,41:7
69,42:14
69,43:7
69,45:16
69,46:16
69,47:5
69,49:16
69,50:5
69,52:4
69,54:7
69,55:5
69,56:4
69,57:12
69,59:4
69,60:16
69,61:4
69,62:4
69,63:14
69,64:7
69,65:5
69,66:7
69,67:5
69,68:4
70,2:3
70,3:3
70,4:3
70,5:3
70,6:7
70,7:7
70,8:1
70,9:7
70,10:1
70,13:12
70,14:3
70,15:7
70,16:7
70,18:8
70,19:8
70,20:3
70,21:12
70,22:8
70,23:3
70,24:3
70,25:7
70,26:14
70,27:14
70,28:14
70,29:4
70,30:7
70,31:3
70,32:7
70,33:3
70,34:14
70,35:4
70,37:14
70,38:14
70,39:14
70,40:14
70,41:7
70,42:14
70,43:7
70,45:16
70,46:16
70,47:5
70,49:16
70,50:5
70,52:4
70,54:7
70,55:5
70,56:4
70,57:12
70,59:4
70,60:16
70,61:4
70,62:4
70,63:14
70,64:7
70,65:5
70,66:7
70,67:5
70,68:4

<setup times backward>
1,16:4
1,18:5
1,19:5
1,21:9
1,22:5
1,30:4
1,57:9
2,16:4
2,18:5
2,19:5
2,21:9
2,22:5
2,30:4
2,57:9
3,16:4
3,18:5
3,19:5
3,21:9
3,22:5
3,30:4
3,57:9
4,16:4
4,18:5
4,19:5
4,21:9
4,22:5
4,30:4
4,57:9
4,68:1
5,16:4
5,18:5
5,19:5
5,21:9
5,22:5
5,57:9
5,68:1
6,18:1
6,19:1
6,21:5
6,22:1
6,57:5
7,1:10
7,2:10
7,3:10
7,4:10
7,5:10
7,6:14
7,10:6
7,11:7
7,16:14
7,17:7
7,18:15
7,19:15
7,20:10
7,21:19
7,22:15
7,24:10
7,30:14
7,57:19
7,58:7
7,59:3
7,68:11
7,69:7
7,70:7
8,1:4
8,2:4
8,3:4
8,4:4
8,5:4
8,6:8
8,11:1
8,16:8
8,17:1
8,18:9
8,19:9
8,20:4
8,21:13
8,22:9
8,24:4
8,30:8
8,57:13
8,58:1
8,68:5
8,69:1
8,70:1
9,1:10
9,2:10
9,3:10
9,4:10
9,5:10
9,6:14
9,8:6
9,16:14
9,17:7
9,18:15
9,19:15
9,20:10
9,21:19
9,22:15
9,24:10
9,30:14
9,57:19
9,58:7
9,59:3
9,68:11
9,69:7
9,70:7
10,1:4
10,2:4
10,3:4
10,4:4
10,5:4
10,6:8
10,16:8
10,17:1
10,18:9
10,19:9
10,20:4
10,21:13
10,22:9
10,24:4
10,30:8
10,57:13
10,58:1
10,68:5
10,69:1
10,70:1
11,1:3
11,2:3
11,3:3
11,4:3
11,5:3
11,6:7
11,16:7
11,18:8
11,19:8
11,20:3
11,21:12
11,22:8
11,24:3
11,30:7
11,57:12
11,68:4
12,1:3
12,2:3
12,3:3
12,4:3
12,5:3
12,6:7
12,16:7
12,18:8
12,19:8
12,20:3
12,21:12
12,22:8
12,24:3
12,30:7
12,57:12
12,68:4
14,6:4
14,13:9
14,16:4
14,18:5
14,19:5
14,21:9
14,22:5
14,30:4
14,57:9
14,68:1
15,1:10
15,2:10
15,3:10
15,4:10
15,5:10
15,6:14
15,8:6
15,10:6
15,11:7
15,12:7
15,13:19
15,14:10
15,24:10
15,30:14
15,68:11
15,69:7
15,70:7
16,13:5
17,1:3
17,2:3
17,3:3
17,4:3
17,5:3
17,6:7
17,13:12
17,14:3
17,16:7
17,18:8
17,24:3
17,30:7
17,68:4
18,13:4
19,13:4
20,6:4
20,13:9
20,16:4
20,18:5
20,19:5
20,22:5
20,30:4
20,57:9
20,68:1
22,13:4
22,21:4
22,57:4
23,1:6
23,2:6
23,3:6
23,4:6
23,5:6
23,6:10
23,8:2
23,10:2
23,11:3
23,12:3
23,13:15
23,14:6
23,16:10
23,17:3
23,18:11
23,19:11
23,20:6
23,21:15
23,22:11
23,24:6
23,30:10
23,57:15
23,58:3
23,68:7
23,69:3
23,70:3
24,6:4
24,13:9
24,16:4
24,18:5
24,19:5
24,21:9
24,22:5
24,30:4
24,32:4
24,34:11
24,57:9
24,68:1
25,13:5
25,18:1
25,19:1
25,21:5
25,22:1
25,34:7
25,57:5
29,6:3
29,13:8
29,16:3
29,18:4
29,19:4
29,21:8
29,22:4
29,25:3
29,26:10
29,27:10
29,28:10
29,30:3
29,32:3
29,34:10
29,57:8
30,13:5
30,18:1
30,19:1
30,21:5
30,22:1
30,26:7
30,27:7
30,28:7
30,34:7
30,57:5
31,1:6
31,2:6
31,3:6
31,4:6
31,5:6
31,6:10
31,8:2
31,10:2
31,11:3
31,12:3
31,13:15
31,14:6
31,16:10
31,17:3
31,18:11
31,19:11
31,20:6
31,21:15
31,22:11
31,24:6
31,25:10
31,26:17
31,27:17
31,28:17
31,29:7
31,30:10
31,34:17
31,57:15
31,58:3
31,68:7
31,69:3
31,70:3
32,13:5
32,18:1
32,19:1
32,21:5
32,22:1
32,26:7
32,27:7
32,28:7
32,34:7
32,57:5
33,1:6
33,2:6
33,3:6
33,4:6
33,5:6
33,6:10
33,8:2
33,10:2
33,11:3
33,12:3
33,13:15
33,14:6
33,16:10
33,17:3
33,18:11
33,19:11
33,20:6
33,21:15
33,22:11
33,24:6
33,25:10
33,26:17
33,27:17
33,28:17
33,29:7
33,30:10
33,32:10
33,57:15
33,58:3
33,68:7
33,69:3
33,70:3
35,6:3
35,13:8
35,16:3
35,18:4
35,19:4
35,21:8
35,22:4
35,25:3
35,26:10
35,27:10
35,28:10
35,30:3
35,32:3
35,34:10
35,57:8
36,1:3
36,2:3
36,3:3
36,4:3
36,5:3
36,6:7
36,13:12
36,14:3
36,16:7
36,18:8
36,19:8
36,20:3
36,21:12
36,22:8
36,24:3
36,25:7
36,26:14
36,27:14
36,28:14
36,29:4
36,30:7
36,32:7
36,34:14
36,35:4
36,45:16
36,46:16
36,47:5
36,49:16
36,55:5
36,56:4
36,57:12
36,60:16
36,63:14
36,65:5
36,67:5
36,68:4
37,45:2
37,46:2
37,49:2
37,60:2
38,45:2
38,46:2
38,49:2
38,60:2
39,45:2
39,46:2
39,49:2
39,60:2
40,45:2
40,46:2
40,49:2
40,60:2
41,1:10
41,2:10
41,3:10
41,4:10
41,5:10
41,6:14
41,8:6
41,10:6
41,11:7
41,12:7
41,13:19
41,14:10
41,16:14
41,17:7
41,18:15
41,19:15
41,20:10
41,21:19
41,22:15
41,23:4
41,24:10
41,25:14
41,26:21
41,27:21
41,28:21
41,29:11
41,30:14
41,31:4
41,32:14
41,33:4
41,34:21
41,35:11
41,36:7
41,37:21
41,38:21
41,39:21
41,40:21
41,44:7
41,45:23
41,46:23
41,47:12
41,48:7
41,49:23
41,51:7
41,52:3
41,53:7
41,55:12
41,56:11
41,57:19
41,58:7
41,59:3
41,60:23
41,61:3
41,62:3
41,63:21
41,65:12
41,67:12
41,68:11
41,69:7
41,70:7
42,45:2
42,46:2
42,49:2
42,60:2
43,1:10
43,2:10
43,3:10
43,4:10
43,5:10
43,6:14
43,8:6
43,10:6
43,11:7
43,12:7
43,13:19
43,14:10
43,16:14
43,17:7
43,18:15
43,19:15
43,20:10
43,21:19
43,22:15
43,23:4
43,24:10
43,25:14
43,26:21
43,27:21
43,28:21
43,29:11
43,30:14
43,31:4
43,32:14
43,33:4
43,34:21
43,35:11
43,36:7
43,37:21
43,38:21
43,39:21
43,40:21
43,42:21
43,44:7
43,45:23
43,46:23
43,47:12
43,48:7
43,49:23
43,51:7
43,52:3
43,53:7
43,55:12
43,56:11
43,57:19
43,58:7
43,59:3
43,60:23
43,61:3
43,62:3
43,63:21
43,65:12
43,67:12
43,68:11
43,69:7
43,70:7
44,1:3
44,2:3
44,3:3
44,4:3
44,5:3
44,6:7
44,13:12
44,14:3
44,16:7
44,18:8
44,19:8
44,20:3
44,21:12
44,22:8
44,24:3
44,25:7
44,26:14
44,27:14
44,28:14
44,29:4
44,30:7
44,32:7
44,34:14
44,35:4
44,37:14
44,38:14
44,39:14
44,40:14
44,42:14
44,49:16
44,55:5
44,56:4
44,57:12
44,60:16
44,63:14
44,65:5
44,67:5
44,68:4
47,6:2
47,13:7
47,16:2
47,18:3
47,19:3
47,21:7
47,22:3
47,25:2
47,26:9
47,27:9
47,28:9
47,30:2
47,32:2
47,34:9
47,37:9
47,38:9
47,39:9
47,40:9
47,42:9
47,45:11
47,46:11
47,49:11
47,57:7
47,60:11
47,63:9
48,1:3
48,2:3
48,3:3
48,4:3
48,5:3
48,6:7
48,13:12
48,14:3
48,16:7
48,18:8
48,19:8
48,20:3
48,21:12
48,22:8
48,24:3
48,25:7
48,26:14
48,27:14
48,28:14
48,29:4
48,30:7
48,32:7
48,34:14
48,35:4
48,37:14
48,38:14
48,39:14
48,40:14
48,42:14
48,45:16
48,46:16
48,47:5
48,55:5
48,56:4
48,57:12
48,60:16
48,63:14
48,65:5
48,67:5
48,68:4
50,6:2
50,13:7
50,16:2
50,18:3
50,19:3
50,21:7
50,22:3
50,25:2
50,26:9
50,27:9
50,28:9
50,30:2
50,32:2
50,34:9
50,37:9
50,38:9
50,39:9
50,40:9
50,42:9
50,45:11
50,46:11
50,49:11
50,57:7
50,60:11
50,63:9
51,1:3
51,2:3
51,3:3
51,4:3
51,5:3
51,6:7
51,13:12
51,14:3
51,16:7
51,18:8
51,19:8
51,20:3
51,21:12
51,22:8
51,24:3
51,25:7
51,26:14
51,27:14
51,28:14
51,29:4
51,30:7
51,32:7
51,34:14
51,35:4
51,37:14
51,38:14
51,39:14
51,40:14
51,42:14
51,45:16
51,46:16
51,47:5
51,49:16
51,50:5
51,56:4
51,57:12
51,60:16
51,63:14
51,65:5
51,67:5
51,68:4
52,1:7
52,2:7
52,3:7
52,4:7
52,5:7
52,6:11
52,8:3
52,10:3
52,11:4
52,12:4
52,13:16
52,14:7
52,16:11
52,17:4
52,18:12
52,19:12
52,20:7
52,21:16
52,22:12
52,23:1
52,24:7
52,25:11
52,26:18
52,27:18
52,28:18
52,29:8
52,30:11
52,31:1
52,32:11
52,33:1
52,34:18
52,35:8
52,36:4
52,37:18
52,38:18
52,39:18
52,40:18
52,42:18
52,44:4
52,45:20
52,46:20
52,47:9
52,48:4
52,49:20
52,50:9
52,51:4
52,53:4
52,56:8
52,57:16
52,58:4
52,60:20
52,63:18
52,65:9
52,67:9
52,68:8
52,69:4
52,70:4
53,1:3
53,2:3
53,3:3
53,4:3
53,5:3
53,6:7
53,13:12
53,14:3
53,16:7
53,18:8
53,19:8
53,20:3
53,21:12
53,22:8
53,24:3
53,25:7
53,26:14
53,27:14
53,28:14
53,29:4
53,30:7
53,32:7
53,34:14
53,35:4
53,37:14
53,38:14
53,39:14
53,40:14
53,42:14
53,45:16
53,46:16
53,47:5
53,49:16
53,50:5
53,56:4
53,57:12
53,60:16
53,63:14
53,65:5
53,67:5
53,68:4
54,1:10
54,2:10
54,3:10
54,4:10
54,5:10
54,6:14
54,8:6
54,10:6
54,11:7
54,12:7
54,13:19
54,14:10
54,16:14
54,17:7
54,18:15
54,19:15
54,20:10
54,21:19
54,22:15
54,23:4
54,24:10
54,25:14
54,26:21
54,27:21
54,28:21
54,29:11
54,30:14
54,31:4
54,32:14
54,33:4
54,34:21
54,35:11
54,36:7
54,37:21
54,38:21
54,39:21
54,40:21
54,42:21
54,44:7
54,45:23
54,46:23
54,47:12
54,48:7
54,49:23
54,50:12
54,51:7
54,52:3
54,53:7
54,56:11
54,57:19
54,58:7
54,59:3
54,60:23
54,61:3
54,62:3
54,63:21
54,65:12
54,67:12
54,68:11
54,69:7
54,70:7
55,6:2
55,13:7
55,16:2
55,18:3
55,19:3
55,21:7
55,22:3
55,25:2
55,26:9
55,27:9
55,28:9
55,30:2
55,32:2
55,34:9
55,37:9
55,38:9
55,39:9
55,40:9
55,42:9
55,45:11
55,46:11
55,49:11
55,57:7
55,60:11
55,63:9
56,6:3
56,13:8
56,16:3
56,18:4
56,19:4
56,21:8
56,22:4
56,25:3
56,26:10
56,27:10
56,28:10
56,30:3
56,32:3
56,34:10
56,37:10
56,38:10
56,39:10
56,40:10
56,42:10
56,45:12
56,46:12
56,47:1
56,49:12
56,50:1
56,55:1
56,57:8
56,60:12
56,63:10
56,65:1
56,67:1
57,26:2
57,27:2
57,28:2
57,34:2
57,37:2
57,38:2
57,39:2
57,40:2
57,42:2
57,45:4
57,46:4
57,49:4
57,63:2
58,1:3
58,2:3
58,3:3
58,4:3
58,5:3
58,6:7
58,13:12
58,14:3
58,16:7
58,18:8
58,19:8
58,20:3
58,21:12
58,22:8
58,24:3
58,25:7
58,26:14
58,27:14
58,28:14
58,29:4
58,30:7
58,32:7
58,34:14
58,35:4
58,37:14
58,38:14
58,39:14
58,40:14
58,42:14
58,45:16
58,46:16
58,47:5
58,49:16
58,50:5
58,55:5
58,56:4
58,57:12
58,63:14
58,65:5
58,67:5
58,68:4
59,1:7
59,2:7
59,3:7
59,4:7
59,5:7
59,6:11
59,8:3
59,10:3
59,11:4
59,12:4
59,13:16
59,14:7
59,16:11
59,17:4
59,18:12
59,19:12
59,20:7
59,21:16
59,22:12
59,23:1
59,24:7
59,25:11
59,26:18
59,27:18
59,28:18
59,29:8
59,30:11
59,31:1
59,32:11
59,33:1
59,34:18
59,35:8
59,36:4
59,37:18
59,38:18
59,39:18
59,40:18
59,42:18
59,44:4
59,45:20
59,46:20
59,47:9
59,48:4
59,49:20
59,50:9
59,51:4
59,53:4
59,55:9
59,56:8
59,57:16
59,58:4
59,63:18
59,65:9
59,67:9
59,68:8
59,69:4
59,70:4
61,1:7
61,2:7
61,3:7
61,4:7
61,5:7
61,6:11
61,8:3
61,10:3
61,11:4
61,12:4
61,13:16
61,14:7
61,16:11
61,17:4
61,18:12
61,19:12
61,20:7
61,21:16
61,22:12
61,23:1
61,24:7
61,25:11
61,26:18
61,27:18
61,28:18
61,29:8
61,30:11
61,31:1
61,32:11
61,33:1
61,34:18
61,35:8
61,36:4
61,37:18
61,38:18
61,39:18
61,40:18
61,42:18
61,44:4
61,45:20
61,46:20
61,47:9
61,48:4
61,49:20
61,50:9
61,51:4
61,53:4
61,55:9
61,56:8
61,57:16
61,58:4
61,60:20
61,63:18
61,67:9
61,68:8
61,69:4
61,70:4
62,1:7
62,2:7
62,3:7
62,4:7
62,5:7
62,6:11
62,8:3
62,10:3
62,11:4
62,12:4
62,13:16
62,14:7
62,16:11
62,17:4
62,18:12
62,19:12
62,20:7
62,21:16
62,22:12
62,23:1
62,24:7
62,25:11
62,26:18
62,27:18
62,28:18
62,29:8
62,30:11
62,31:1
62,32:11
62,33:1
62,34:18
62,35:8
62,36:4
62,37:18
62,38:18
62,39:18
62,40:18
62,42:18
62,44:4
62,45:20
62,46:20
62,47:9
62,48:4
62,49:20
62,50:9
62,51:4
62,53:4
62,55:9
62,56:8
62,57:16
62,58:4
62,60:20
62,68:8
62,69:4
62,70:4
63,45:2
63,46:2
63,49:2
63,60:2
64,1:10
64,2:10
64,3:10
64,4:10
64,5:10
64,6:14
64,8:6
64,10:6
64,11:7
64,12:7
64,13:19
64,14:10
64,16:14
64,17:7
64,18:15
64,19:15
64,20:10
64,21:19
64,22:15
64,23:4
64,24:10
64,25:14
64,26:21
64,27:21
64,28:21
64,29:11
64,30:14
64,31:4
64,32:14
64,33:4
64,34:21
64,35:11
64,36:7
64,37:21
64,38:21
64,39:21
64,40:21
64,42:21
64,44:7
64,45:23
64,46:23
64,47:12
64,48:7
64,49:23
64,50:12
64,51:7
64,52:3
64,53:7
64,55:12
64,56:11
64,57:19
64,58:7
64,59:3
64,60:23
64,61:3
64,62:3
64,63:21
64,68:11
64,69:7
64,70:7
65,6:2
65,13:7
65,16:2
65,18:3
65,19:3
65,21:7
65,22:3
65,25:2
65,26:9
65,27:9
65,28:9
65,30:2
65,32:2
65,34:9
65,37:9
65,38:9
65,39:9
65,40:9
65,42:9
65,45:11
65,46:11
65,49:11
65,57:7
65,60:11
65,63:9
66,1:10
66,2:10
66,3:10
66,4:10
66,5:10
66,6:14
66,8:6
66,10:6
66,11:7
66,12:7
66,13:19
66,14:10
66,16:14
66,17:7
66,18:15
66,19:15
66,20:10
66,21:19
66,22:15
66,23:4
66,24:10
66,25:14
66,26:21
66,27:21
66,28:21
66,29:11
66,30:14
66,31:4
66,32:14
66,33:4
66,34:21
66,35:11
66,36:7
66,37:21
66,38:21
66,39:21
66,40:21
66,42:21
66,44:7
66,45:23
66,46:23
66,47:12
66,48:7
66,49:23
66,50:12
66,51:7
66,52:3
66,53:7
66,55:12
66,56:11
66,57:19
66,58:7
66,59:3
66,60:23
66,61:3
66,62:3
66,63:21
66,65:12
66,67:12
66,68:11
66,69:7
66,70:7
67,6:2
67,13:7
67,16:2
67,18:3
67,19:3
67,21:7
67,22:3
67,25:2
67,26:9
67,27:9
67,28:9
67,30:2
67,32:2
67,34:9
67,37:9
67,38:9
67,39:9
67,40:9
67,42:9
67,45:11
67,46:11
67,49:11
67,57:7
67,60:11
67,63:9
68,6:3
68,13:8
68,16:3
68,18:4
68,19:4
68,21:8
68,22:4
68,25:3
68,26:10
68,27:10
68,28:10
68,30:3
68,32:3
68,34:10
68,37:10
68,38:10
68,39:10
68,40:10
68,42:10
68,45:12
68,46:12
68,47:1
68,49:12
68,50:1
68,55:1
68,57:8
68,60:12
68,63:10
68,65:1
68,67:1
69,1:3
69,2:3
69,3:3
69,4:3
69,5:3
69,6:7
69,13:12
69,14:3
69,16:7
69,18:8
69,19:8
69,20:3
69,21:12
69,22:8
69,24:3
69,25:7
69,26:14
69,27:14
69,28:14
69,29:4
69,30:7
69,32:7
69,34:14
69,35:4
69,37:14
69,38:14
69,39:14
69,40:14
69,42:14
69,45:16
69,46:16
69,47:5
69,49:16
69,50:5
69,55:5
69,56:4
69,57:12
69,60:16
69,63:14
69,65:5
69,67:5
69,68:4
70,1:3
70,2:3
70,3:3
70,4:3
70,5:3
70,6:7
70,13:12
70,14:3
70,16:7
70,18:8
70,19:8
70,20:3
70,21:12
70,22:8
70,24:3
70,25:7
70,26:14
70,27:14
70,28:14
70,29:4
70,30:7
70,32:7
70,34:14
70,35:4
70,37:14
70,38:14
70,39:14
70,40:14
70,42:14
70,45:16
70,46:16
70,47:5
70,49:16
70,50:5
70,55:5
70,56:4
70,57:12
70,60:16
70,63:14
70,65:5
70,67:5
70,68:4

<end>

<optimal SALBP-1 value>
18


<rand seed>
467321153

<Lower Bounds>
Lm1=17
Lms1=17
Lm2=7
Lm3=11
Lm4=17
Best=17

<Optimal Stations (Iterations: 10)>
22
